956.78,59.18,70.93
923.5,61.32,73.49
1082.46,52.31,62.7
988.05,57.31,68.69
1101.86,51.39,61.59
994.44,56.94,68.24
1101.64,51.4,61.6
1063.83,53.23,63.79
964.88,58.69,70.33
954.01,59.36,71.14
1052.11,53.82,64.5
999.91,56.63,67.87
1016.35,55.71,66.77
991.44,57.11,68.45
1086.26,52.13,62.48
1050.03,53.93,64.63
1099.87,51.48,61.7
1016.88,55.69,66.74
979.67,57.8,69.27
987.24,57.36,68.74
